
c turning on binary mode checking

c parsing input formula with 5204 variables and 24514 clauses

c finished parsing, read 3871 bytes from proof file

c detected empty clause; start verification via backward checking

c 1028 of 24514 clauses in core                            

c 89 of 831 lemmas in core using 7169 resolution steps

c 0 RAT lemmas in core; 0 redundant literals in core lemmas

s VERIFIED

c verification time: 0.056 seconds
